echo
start molecule

title "ATH  pbe0 none"
charge 0

geometry units angstroms print xyz noautosym
C 0.168385 2.119289 -0.524561  
C -0.684874 2.277981 0.612575  
C -1.480849 3.411422 0.451822  
C -0.033480 3.033720 -1.531966  
C -0.845715 1.702759 1.921928  
C -1.636695 2.529845 2.709878  
S -1.652620 2.177720 4.435745  
C -0.568398 0.857590 4.131294  
C -0.324376 0.613604 2.706597  
C 0.324387 -0.613610 2.706598  
C 0.568409 -0.857593 4.131296  
S 1.652626 -2.177727 4.435749  
C 1.636695 -2.529859 2.709883  
C 0.845722 -1.702769 1.921932  
S -2.330451 3.880761 1.886019  
C 0.684876 -2.277992 0.612580  
C -0.168377 -2.119289 -0.524558  
C 0.033475 -3.033727 -1.531960  
S 1.278160 -4.166511 -1.076088  
C 1.480837 -3.411443 0.451831
S 2.330436 -3.880785 1.886029  
S -1.278184 4.166485 -1.076101  
Br -1.574617 -0.872667 -0.547801  
Br 1.574651 0.872697 -0.547795  
Si -0.874153 -3.272581 -3.176819  
Si 0.874150 3.272585 -3.176823  
C 0.812014 1.677980 -4.168068  
H 1.277838 0.847331 -3.611210  
H -0.230063 1.391046 -4.391320  
H 1.349322 1.796624 -5.126729  
C -0.021863 4.649939 -4.099696  
H -0.005270 5.600966 -3.537581  
H 0.469552 4.831000 -5.072951  
H -1.076096 4.388190 -4.301076  
C 2.647568 3.780941 -2.810549  
H 2.673619 4.724102 -2.236710  
H 3.165508 3.007364 -2.217655  
H 3.212406 3.932742 -3.748454  
C 0.021842 -4.649951 -4.099687  
H 0.005231 -5.600977 -3.537569  
H -0.469573 -4.831006 -5.072943  
H 1.076079 -4.388220 -4.301063  
C -2.647580 -3.780907 -2.810551  
H -2.673648 -4.724067 -2.236710  
H -3.165510 -3.007321 -2.217661  
H -3.212418 -3.932701 -3.748458  
C -0.811987 -1.677979 -4.168068  
H -1.277799 -0.847321 -3.611214  
H 0.230096 -1.391063 -4.391317  
H -1.349293 -1.796616 -5.126731  
N 0.000006 -0.000001 4.979290
end

basis spherical 
 * library def2-sv(p)
end 
 
dft
 odft  
 xc pbe0
 mult 2
 convergence energy 1e-8
end 
 
property
 nbofile 1
end

task dft property
